NAME : Unnamed.891.tour
COMMENT : Length = 891
COMMENT : Found by LKH [Keld Helsgaun] Tue Jan 13 16:45:22 2015
TYPE : TOUR
DIMENSION : 122
TOUR_SECTION
1
3
25
5
16
11
31
41
44
14
27
7
8
15
10
20
29
19
9
12
17
55
71
40
85
111
100
108
121
101
90
114
106
118
103
87
93
52
53
80
39
66
59
73
63
83
46
65
75
62
60
77
82
70
37
54
79
68
97
74
69
49
43
91
78
104
105
96
88
116
99
4
84
64
57
34
61
58
45
42
38
76
51
35
72
67
94
98
109
95
47
48
50
36
81
119
110
115
86
92
117
112
113
120
102
107
89
56
30
21
6
24
32
13
28
22
18
23
26
33
2
122
-1
EOF
